PointerNetwork/Ptr_Net_TSPTW/benchmark/n20w40/n20w40.003.txt.solution
1 12 10 15 8 18 4 16 11 14 7 9 5 13 17 2 20 21 6 3 19 
317
